Maximize
  - 1.6873601537058 edge_0_1_0_0 - 1.945030809362 edge_0_2_0_0
   - 2.9453058935091 edge_0_3_0_0 - 2.4074621032239 edge_0_4_0_0
   - 2.1878415869463 edge_0_5_0_0 - 3.0315502445087 edge_0_6_0_0
   + 0.06153654855897 edge_0_7_0_0 - 2.924580003674 edge_0_8_0_0
   - 1.7173978039152 edge_0_9_0_0 - 3.2106233489856 edge_0_12_0_0
   - 4.214367242513999 edge_0_13_0_0 - 4.5076788979683 edge_0_14_0_0
   - 1.3873699167578 edge_0_15_0_0 - 1.0539719668623 edge_0_16_0_0
   + 1.03584369261181 edge_1_2_0_0 + 0.7870838604570747 edge_1_3_0_0
   + 0.0959485250730573 edge_1_4_0_0 + 0.0740972962524499 edge_1_5_0_0
   + 0.1423920677139047 edge_1_6_0_0 + 0.2503423413771756 edge_1_7_0_0
   - 0.2443952542921928 edge_1_8_0_0 - 1.252332973384667 edge_1_9_0_0
   - 0.3661255224477142 edge_1_10_0_0 - 0.7894987434688366 edge_1_11_0_0
   - 0.6960390258793784 edge_1_12_0_0 - 0.8633567736788664 edge_1_13_0_0
   - 1.091485208633841 edge_1_14_0_0 - 0.1185811610916663 edge_1_15_0_0
   - 0.126862499108861 edge_1_16_0_0 + 0.7246284596460109 edge_1_17_0_0
   + 2.236907838590795 edge_2_1_0_0 + 1.834998078976807 edge_2_3_0_0
   + 0.22570794908631 edge_2_4_0_0 + 0.6100284883444588 edge_2_5_0_0
   + 0.3395782283174123 edge_2_6_0_0 + 0.8023137968209277 edge_2_7_0_0
   - 0.0818541492863815 edge_2_8_0_0 + 0.084417827590875 edge_2_9_0_0
   - 1.52308498569362 edge_2_11_0_0 - 0.1049894802352116 edge_2_12_0_0
   - 0.6789353957193799 edge_2_13_0_0 - 0.7321707930682392 edge_2_14_0_0
   - 0.4836209076341683 edge_2_15_0_0 - 1.044797345332845 edge_2_16_0_0
   + 1.362475998895282 edge_2_17_0_0 - 0.3213604690677405 edge_3_1_0_0
   - 1.171609877641342 edge_3_2_0_0 + 0.17065670859256 edge_3_4_0_0
   - 0.1476521583903249 edge_3_5_0_0 - 0.2026117855516976 edge_3_6_0_0
   - 1.281326224772393 edge_3_8_0_0 - 1.007838254062124 edge_3_9_0_0
   + 0.2447494621576401 edge_4_1_0_0 - 0.0190157067913996 edge_4_2_0_0
   + 0.5481458657081969 edge_4_3_0_0 + 1.354438229277536 edge_4_5_0_0
   + 0.941103107203424 edge_4_6_0_0 + 0.6078527224138689 edge_4_7_0_0
   + 0.0110075532638702 edge_4_8_0_0 - 0.4572999224297796 edge_4_9_0_0
   - 0.2814205690011606 edge_4_10_0_0 - 0.0895525024838486 edge_4_11_0_0
   - 0.2087490642074373 edge_4_12_0_0 - 0.9625381778695945 edge_4_13_0_0
   - 0.813072457966919 edge_4_14_0_0 - 0.00944042531541429 edge_4_15_0_0
   - 0.1802288279246369 edge_4_16_0_0 + 0.6958666878268966 edge_4_17_0_0
   + 1.158470295361634 edge_5_1_0_0 + 1.070646887527332 edge_5_2_0_0
   + 1.903025254552846 edge_5_3_0_0 + 3.369093160729278 edge_5_4_0_0
   + 2.718156769421567 edge_5_6_0_0 + 0.9609395387488243 edge_5_7_0_0
   + 1.001956180544884 edge_5_8_0_0 + 2.187223613293013 edge_5_9_0_0
   - 0.3749237201230995 edge_5_10_0_0 + 0.4470600548912763 edge_5_11_0_0
   + 2.334459078144802 edge_5_12_0_0 + 0.2223219832375804 edge_5_13_0_0
   + 0.3615337526543636 edge_5_14_0_0 + 0.5001455842853032 edge_5_15_0_0
   + 0.167898906808384 edge_5_16_0_0 + 4.739689572665525 edge_5_17_0_0
   - 0.9183332225355454 edge_6_2_0_0 - 0.9807682582183244 edge_6_3_0_0
   - 0.2279169176661438 edge_6_4_0_0 - 0.4812735841686131 edge_6_5_0_0
   - 0.1031921748089225 edge_6_7_0_0 - 0.7371322956036486 edge_6_8_0_0
   - 0.3544673285949822 edge_6_9_0_0 + 0.2806531959938159 edge_6_11_0_0
   - 0.0840195453784163 edge_6_13_0_0 - 0.2889758002557059 edge_6_14_0_0
   + 1.273683367058265 edge_7_1_0_0 + 1.609392546044806 edge_7_2_0_0
   + 2.231794515468021 edge_7_3_0_0 + 0.8199555044007177 edge_7_4_0_0
   + 1.494649282568038 edge_7_5_0_0 + 2.133237095376467 edge_7_6_0_0
   + 1.233031278195244 edge_7_8_0_0 + 3.286148225479095 edge_7_9_0_0
   - 0.1335428765508906 edge_7_10_0_0 + 1.11748221261985 edge_7_11_0_0
   + 1.370255719367452 edge_7_12_0_0 + 0.1199221791286088 edge_7_13_0_0
   - 0.0353765942324521 edge_7_14_0_0 + 1.006291590915701 edge_7_15_0_0
   - 0.0188641619362461 edge_7_16_0_0 + 4.7622797142632 edge_7_17_0_0
   - 0.1822161712320211 edge_8_1_0_0 - 0.0325788908614078 edge_8_2_0_0
   + 0.0431168312270629 edge_8_3_0_0 - 0.0279543674893511 edge_8_4_0_0
   - 0.1547133114131944 edge_8_5_0_0 + 0.3256720086419654 edge_8_6_0_0
   + 0.2035812827040087 edge_8_7_0_0 + 0.7903423633531885 edge_8_9_0_0
   + 0.2096363533824758 edge_8_10_0_0 + 0.0814408667169976 edge_8_12_0_0
   - 0.5084195674839148 edge_8_13_0_0 - 0.2556915595328514 edge_8_14_0_0
   + 0.3342897266525159 edge_8_15_0_0 + 0.0322586897293923 edge_8_16_0_0
   + 0.7577434912720525 edge_8_17_0_0 - 0.2953465087741077 edge_9_1_0_0
   + 0.3771178245293815 edge_9_2_0_0 + 1.312700050739557 edge_9_3_0_0
   + 0.9969992092021289 edge_9_4_0_0 + 1.689558975421845 edge_9_5_0_0
   + 0.9641586421296312 edge_9_6_0_0 + 1.066119424295231 edge_9_7_0_0
   + 3.091435624763688 edge_9_8_0_0 + 0.9555025611444917 edge_9_11_0_0
   + 1.989424533614744 edge_9_12_0_0 + 0.5852059020709008 edge_9_13_0_0
   + 0.549044788082468 edge_9_14_0_0 + 1.442999026238135 edge_9_15_0_0
   + 0.2074959350707667 edge_9_16_0_0 + 3.260198435104 edge_9_17_0_0
   - 0.8496092369056482 edge_10_8_0_0 - 0.2570411964476935 edge_10_15_0_0
   + 0.046908478948023 edge_10_16_0_0 - 0.3821014542005375 edge_10_17_0_0
   - 0.887886307545711 edge_11_5_0_0 - 0.1238730415054185 edge_11_6_0_0
   - 0.3065307508114199 edge_11_7_0_0 + 0.8148243361450042 edge_11_12_0_0
   + 0.6584901018978622 edge_11_13_0_0 + 0.1580777099169154 edge_11_14_0_0
   - 0.2731610507465077 edge_11_15_0_0 - 0.0084186332958573 edge_12_1_0_0
   - 0.2044301374153444 edge_12_2_0_0 - 0.3393714798169026 edge_12_3_0_0
   - 0.2287522485495111 edge_12_4_0_0 - 0.220224417504381 edge_12_5_0_0
   - 0.0495219680609115 edge_12_6_0_0 + 0.0395943254324418 edge_12_7_0_0
   - 0.9088698433529963 edge_12_9_0_0 + 0.9995919154032972 edge_12_11_0_0
   + 1.14320100447202 edge_12_13_0_0 + 0.7530979110042672 edge_12_14_0_0
   + 1.745451281961903 edge_12_15_0_0 - 0.6682451094539299 edge_12_16_0_0
   + 2.1644062846229 edge_12_17_0_0 - 0.9278305984228817 edge_13_1_0_0
   - 1.044368654331419 edge_13_2_0_0 - 0.7637549449677297 edge_13_3_0_0
   - 1.41972195317202 edge_13_5_0_0 - 0.3428920353147131 edge_13_6_0_0
   - 0.5568941432703745 edge_13_7_0_0 - 1.109936633972351 edge_13_8_0_0
   - 1.622090566914783 edge_13_9_0_0 + 0.5117789797816278 edge_13_11_0_0
   + 0.8375986419150777 edge_13_12_0_0 + 0.9187717740203273 edge_13_14_0_0
   + 1.447497703969332 edge_13_15_0_0 + 0.7010699670421657 edge_13_16_0_0
   + 1.182881273925129 edge_13_17_0_0 - 1.637730638466179 edge_14_1_0_0
   - 1.788204083522448 edge_14_2_0_0 - 0.3383762461308951 edge_14_3_0_0
   - 1.602576938169303 edge_14_5_0_0 - 0.7477526315665056 edge_14_6_0_0
   - 0.5901183203160753 edge_14_7_0_0 - 0.8576240699687385 edge_14_8_0_0
   - 0.3282516858255944 edge_14_11_0_0 + 0.0202195647963138 edge_14_12_0_0
   + 0.5575819926850821 edge_14_13_0_0 + 0.8958906771141162 edge_14_15_0_0
   + 0.8324539887357532 edge_14_16_0_0 + 1.194220769142969 edge_14_17_0_0
   - 0.048501868438816 edge_15_1_0_0 - 0.9022933751795943 edge_15_2_0_0
   + 0.5344755031079079 edge_15_3_0_0 + 0.0405392740328443 edge_15_4_0_0
   - 0.2462802851129531 edge_15_5_0_0 + 0.5667186397363296 edge_15_6_0_0
   + 0.0967089508998626 edge_15_7_0_0 + 0.2936373673427066 edge_15_8_0_0
   + 0.3285108597387372 edge_15_9_0_0 + 0.8379549720755968 edge_15_10_0_0
   + 1.009841841682941 edge_15_11_0_0 + 0.5900794392450938 edge_15_12_0_0
   + 1.802718148447575 edge_15_13_0_0 + 2.874656816094987 edge_15_14_0_0
   + 2.778657158098561 edge_15_16_0_0 + 2.492528504482081 edge_15_17_0_0
   - 0.6222721335912462 edge_16_1_0_0 - 0.4768882814068474 edge_16_7_0_0
   - 0.3219650163121462 edge_16_8_0_0 + 0.0338920207091976 edge_16_10_0_0
   - 0.0533914028640428 edge_16_12_0_0 + 0.0136839481218855 edge_16_13_0_0
   + 0.5019711784522998 edge_16_14_0_0 + 0.9498986987730764 edge_16_15_0_0
   + 1.267541650815727 edge_16_17_0_0 - 0.5383946413421474 edge_17_15_0_0
   - 0.2864212573324018 edge_17_16_0_0
Subject To
 one_parent_1: edge_0_1_0_0 + edge_2_1_0_0 + edge_3_1_0_0 + edge_4_1_0_0
   + edge_5_1_0_0 + edge_7_1_0_0 + edge_8_1_0_0 + edge_9_1_0_0
   + edge_12_1_0_0 + edge_13_1_0_0 + edge_14_1_0_0 + edge_15_1_0_0
   + edge_16_1_0_0 = 1
 consume_one_flow_unit_1: flow_0_1_0_0 - flow_1_2_0_0 - flow_1_3_0_0
   - flow_1_4_0_0 - flow_1_5_0_0 - flow_1_6_0_0 - flow_1_7_0_0
   - flow_1_8_0_0 - flow_1_9_0_0 - flow_1_10_0_0 - flow_1_11_0_0
   - flow_1_12_0_0 - flow_1_13_0_0 - flow_1_14_0_0 - flow_1_15_0_0
   - flow_1_16_0_0 - flow_1_17_0_0 + flow_2_1_0_0 + flow_3_1_0_0
   + flow_4_1_0_0 + flow_5_1_0_0 + flow_7_1_0_0 + flow_8_1_0_0
   + flow_9_1_0_0 + flow_12_1_0_0 + flow_13_1_0_0 + flow_14_1_0_0
   + flow_15_1_0_0 + flow_16_1_0_0 = 1
 one_parent_2: edge_0_2_0_0 + edge_1_2_0_0 + edge_3_2_0_0 + edge_4_2_0_0
   + edge_5_2_0_0 + edge_6_2_0_0 + edge_7_2_0_0 + edge_8_2_0_0
   + edge_9_2_0_0 + edge_12_2_0_0 + edge_13_2_0_0 + edge_14_2_0_0
   + edge_15_2_0_0 = 1
 consume_one_flow_unit_2: flow_0_2_0_0 + flow_1_2_0_0 - flow_2_1_0_0
   - flow_2_3_0_0 - flow_2_4_0_0 - flow_2_5_0_0 - flow_2_6_0_0
   - flow_2_7_0_0 - flow_2_8_0_0 - flow_2_9_0_0 - flow_2_11_0_0
   - flow_2_12_0_0 - flow_2_13_0_0 - flow_2_14_0_0 - flow_2_15_0_0
   - flow_2_16_0_0 - flow_2_17_0_0 + flow_3_2_0_0 + flow_4_2_0_0
   + flow_5_2_0_0 + flow_6_2_0_0 + flow_7_2_0_0 + flow_8_2_0_0
   + flow_9_2_0_0 + flow_12_2_0_0 + flow_13_2_0_0 + flow_14_2_0_0
   + flow_15_2_0_0 = 1
 one_parent_3: edge_0_3_0_0 + edge_1_3_0_0 + edge_2_3_0_0 + edge_4_3_0_0
   + edge_5_3_0_0 + edge_6_3_0_0 + edge_7_3_0_0 + edge_8_3_0_0
   + edge_9_3_0_0 + edge_12_3_0_0 + edge_13_3_0_0 + edge_14_3_0_0
   + edge_15_3_0_0 = 1
 consume_one_flow_unit_3: flow_0_3_0_0 + flow_1_3_0_0 + flow_2_3_0_0
   - flow_3_1_0_0 - flow_3_2_0_0 - flow_3_4_0_0 - flow_3_5_0_0
   - flow_3_6_0_0 - flow_3_8_0_0 - flow_3_9_0_0 + flow_4_3_0_0
   + flow_5_3_0_0 + flow_6_3_0_0 + flow_7_3_0_0 + flow_8_3_0_0
   + flow_9_3_0_0 + flow_12_3_0_0 + flow_13_3_0_0 + flow_14_3_0_0
   + flow_15_3_0_0 = 1
 one_parent_4: edge_0_4_0_0 + edge_1_4_0_0 + edge_2_4_0_0 + edge_3_4_0_0
   + edge_5_4_0_0 + edge_6_4_0_0 + edge_7_4_0_0 + edge_8_4_0_0
   + edge_9_4_0_0 + edge_12_4_0_0 + edge_15_4_0_0 = 1
 consume_one_flow_unit_4: flow_0_4_0_0 + flow_1_4_0_0 + flow_2_4_0_0
   + flow_3_4_0_0 - flow_4_1_0_0 - flow_4_2_0_0 - flow_4_3_0_0
   - flow_4_5_0_0 - flow_4_6_0_0 - flow_4_7_0_0 - flow_4_8_0_0
   - flow_4_9_0_0 - flow_4_10_0_0 - flow_4_11_0_0 - flow_4_12_0_0
   - flow_4_13_0_0 - flow_4_14_0_0 - flow_4_15_0_0 - flow_4_16_0_0
   - flow_4_17_0_0 + flow_5_4_0_0 + flow_6_4_0_0 + flow_7_4_0_0
   + flow_8_4_0_0 + flow_9_4_0_0 + flow_12_4_0_0 + flow_15_4_0_0 = 1
 one_parent_5: edge_0_5_0_0 + edge_1_5_0_0 + edge_2_5_0_0 + edge_3_5_0_0
   + edge_4_5_0_0 + edge_6_5_0_0 + edge_7_5_0_0 + edge_8_5_0_0
   + edge_9_5_0_0 + edge_11_5_0_0 + edge_12_5_0_0 + edge_13_5_0_0
   + edge_14_5_0_0 + edge_15_5_0_0 = 1
 consume_one_flow_unit_5: flow_0_5_0_0 + flow_1_5_0_0 + flow_2_5_0_0
   + flow_3_5_0_0 + flow_4_5_0_0 - flow_5_1_0_0 - flow_5_2_0_0
   - flow_5_3_0_0 - flow_5_4_0_0 - flow_5_6_0_0 - flow_5_7_0_0
   - flow_5_8_0_0 - flow_5_9_0_0 - flow_5_10_0_0 - flow_5_11_0_0
   - flow_5_12_0_0 - flow_5_13_0_0 - flow_5_14_0_0 - flow_5_15_0_0
   - flow_5_16_0_0 - flow_5_17_0_0 + flow_6_5_0_0 + flow_7_5_0_0
   + flow_8_5_0_0 + flow_9_5_0_0 + flow_11_5_0_0 + flow_12_5_0_0
   + flow_13_5_0_0 + flow_14_5_0_0 + flow_15_5_0_0 = 1
 one_parent_6: edge_0_6_0_0 + edge_1_6_0_0 + edge_2_6_0_0 + edge_3_6_0_0
   + edge_4_6_0_0 + edge_5_6_0_0 + edge_7_6_0_0 + edge_8_6_0_0
   + edge_9_6_0_0 + edge_11_6_0_0 + edge_12_6_0_0 + edge_13_6_0_0
   + edge_14_6_0_0 + edge_15_6_0_0 = 1
 consume_one_flow_unit_6: flow_0_6_0_0 + flow_1_6_0_0 + flow_2_6_0_0
   + flow_3_6_0_0 + flow_4_6_0_0 + flow_5_6_0_0 - flow_6_2_0_0
   - flow_6_3_0_0 - flow_6_4_0_0 - flow_6_5_0_0 - flow_6_7_0_0
   - flow_6_8_0_0 - flow_6_9_0_0 - flow_6_11_0_0 - flow_6_13_0_0
   - flow_6_14_0_0 + flow_7_6_0_0 + flow_8_6_0_0 + flow_9_6_0_0
   + flow_11_6_0_0 + flow_12_6_0_0 + flow_13_6_0_0 + flow_14_6_0_0
   + flow_15_6_0_0 = 1
 one_parent_7: edge_0_7_0_0 + edge_1_7_0_0 + edge_2_7_0_0 + edge_4_7_0_0
   + edge_5_7_0_0 + edge_6_7_0_0 + edge_8_7_0_0 + edge_9_7_0_0
   + edge_11_7_0_0 + edge_12_7_0_0 + edge_13_7_0_0 + edge_14_7_0_0
   + edge_15_7_0_0 + edge_16_7_0_0 = 1
 consume_one_flow_unit_7: flow_0_7_0_0 + flow_1_7_0_0 + flow_2_7_0_0
   + flow_4_7_0_0 + flow_5_7_0_0 + flow_6_7_0_0 - flow_7_1_0_0
   - flow_7_2_0_0 - flow_7_3_0_0 - flow_7_4_0_0 - flow_7_5_0_0
   - flow_7_6_0_0 - flow_7_8_0_0 - flow_7_9_0_0 - flow_7_10_0_0
   - flow_7_11_0_0 - flow_7_12_0_0 - flow_7_13_0_0 - flow_7_14_0_0
   - flow_7_15_0_0 - flow_7_16_0_0 - flow_7_17_0_0 + flow_8_7_0_0
   + flow_9_7_0_0 + flow_11_7_0_0 + flow_12_7_0_0 + flow_13_7_0_0
   + flow_14_7_0_0 + flow_15_7_0_0 + flow_16_7_0_0 = 1
 one_parent_8: edge_0_8_0_0 + edge_1_8_0_0 + edge_2_8_0_0 + edge_3_8_0_0
   + edge_4_8_0_0 + edge_5_8_0_0 + edge_6_8_0_0 + edge_7_8_0_0
   + edge_9_8_0_0 + edge_10_8_0_0 + edge_13_8_0_0 + edge_14_8_0_0
   + edge_15_8_0_0 + edge_16_8_0_0 = 1
 consume_one_flow_unit_8: flow_0_8_0_0 + flow_1_8_0_0 + flow_2_8_0_0
   + flow_3_8_0_0 + flow_4_8_0_0 + flow_5_8_0_0 + flow_6_8_0_0
   + flow_7_8_0_0 - flow_8_1_0_0 - flow_8_2_0_0 - flow_8_3_0_0
   - flow_8_4_0_0 - flow_8_5_0_0 - flow_8_6_0_0 - flow_8_7_0_0
   - flow_8_9_0_0 - flow_8_10_0_0 - flow_8_12_0_0 - flow_8_13_0_0
   - flow_8_14_0_0 - flow_8_15_0_0 - flow_8_16_0_0 - flow_8_17_0_0
   + flow_9_8_0_0 + flow_10_8_0_0 + flow_13_8_0_0 + flow_14_8_0_0
   + flow_15_8_0_0 + flow_16_8_0_0 = 1
 one_parent_9: edge_0_9_0_0 + edge_1_9_0_0 + edge_2_9_0_0 + edge_3_9_0_0
   + edge_4_9_0_0 + edge_5_9_0_0 + edge_6_9_0_0 + edge_7_9_0_0
   + edge_8_9_0_0 + edge_12_9_0_0 + edge_13_9_0_0 + edge_15_9_0_0 = 1
 consume_one_flow_unit_9: flow_0_9_0_0 + flow_1_9_0_0 + flow_2_9_0_0
   + flow_3_9_0_0 + flow_4_9_0_0 + flow_5_9_0_0 + flow_6_9_0_0
   + flow_7_9_0_0 + flow_8_9_0_0 - flow_9_1_0_0 - flow_9_2_0_0
   - flow_9_3_0_0 - flow_9_4_0_0 - flow_9_5_0_0 - flow_9_6_0_0
   - flow_9_7_0_0 - flow_9_8_0_0 - flow_9_11_0_0 - flow_9_12_0_0
   - flow_9_13_0_0 - flow_9_14_0_0 - flow_9_15_0_0 - flow_9_16_0_0
   - flow_9_17_0_0 + flow_12_9_0_0 + flow_13_9_0_0 + flow_15_9_0_0 = 1
 one_parent_10: edge_1_10_0_0 + edge_4_10_0_0 + edge_5_10_0_0
   + edge_7_10_0_0 + edge_8_10_0_0 + edge_15_10_0_0 + edge_16_10_0_0 = 1
 consume_one_flow_unit_10: flow_1_10_0_0 + flow_4_10_0_0 + flow_5_10_0_0
   + flow_7_10_0_0 + flow_8_10_0_0 - flow_10_8_0_0 - flow_10_15_0_0
   - flow_10_16_0_0 - flow_10_17_0_0 + flow_15_10_0_0 + flow_16_10_0_0 = 1
 one_parent_11: edge_1_11_0_0 + edge_2_11_0_0 + edge_4_11_0_0
   + edge_5_11_0_0 + edge_6_11_0_0 + edge_7_11_0_0 + edge_9_11_0_0
   + edge_12_11_0_0 + edge_13_11_0_0 + edge_14_11_0_0 + edge_15_11_0_0 = 1
 consume_one_flow_unit_11: flow_1_11_0_0 + flow_2_11_0_0 + flow_4_11_0_0
   + flow_5_11_0_0 + flow_6_11_0_0 + flow_7_11_0_0 + flow_9_11_0_0
   - flow_11_5_0_0 - flow_11_6_0_0 - flow_11_7_0_0 - flow_11_12_0_0
   - flow_11_13_0_0 - flow_11_14_0_0 - flow_11_15_0_0 + flow_12_11_0_0
   + flow_13_11_0_0 + flow_14_11_0_0 + flow_15_11_0_0 = 1
 one_parent_12: edge_0_12_0_0 + edge_1_12_0_0 + edge_2_12_0_0
   + edge_4_12_0_0 + edge_5_12_0_0 + edge_7_12_0_0 + edge_8_12_0_0
   + edge_9_12_0_0 + edge_11_12_0_0 + edge_13_12_0_0 + edge_14_12_0_0
   + edge_15_12_0_0 + edge_16_12_0_0 = 1
 consume_one_flow_unit_12: flow_0_12_0_0 + flow_1_12_0_0 + flow_2_12_0_0
   + flow_4_12_0_0 + flow_5_12_0_0 + flow_7_12_0_0 + flow_8_12_0_0
   + flow_9_12_0_0 + flow_11_12_0_0 - flow_12_1_0_0 - flow_12_2_0_0
   - flow_12_3_0_0 - flow_12_4_0_0 - flow_12_5_0_0 - flow_12_6_0_0
   - flow_12_7_0_0 - flow_12_9_0_0 - flow_12_11_0_0 - flow_12_13_0_0
   - flow_12_14_0_0 - flow_12_15_0_0 - flow_12_16_0_0 - flow_12_17_0_0
   + flow_13_12_0_0 + flow_14_12_0_0 + flow_15_12_0_0 + flow_16_12_0_0 = 1
 one_parent_13: edge_0_13_0_0 + edge_1_13_0_0 + edge_2_13_0_0
   + edge_4_13_0_0 + edge_5_13_0_0 + edge_6_13_0_0 + edge_7_13_0_0
   + edge_8_13_0_0 + edge_9_13_0_0 + edge_11_13_0_0 + edge_12_13_0_0
   + edge_14_13_0_0 + edge_15_13_0_0 + edge_16_13_0_0 = 1
 consume_one_flow_unit_13: flow_0_13_0_0 + flow_1_13_0_0 + flow_2_13_0_0
   + flow_4_13_0_0 + flow_5_13_0_0 + flow_6_13_0_0 + flow_7_13_0_0
   + flow_8_13_0_0 + flow_9_13_0_0 + flow_11_13_0_0 + flow_12_13_0_0
   - flow_13_1_0_0 - flow_13_2_0_0 - flow_13_3_0_0 - flow_13_5_0_0
   - flow_13_6_0_0 - flow_13_7_0_0 - flow_13_8_0_0 - flow_13_9_0_0
   - flow_13_11_0_0 - flow_13_12_0_0 - flow_13_14_0_0 - flow_13_15_0_0
   - flow_13_16_0_0 - flow_13_17_0_0 + flow_14_13_0_0 + flow_15_13_0_0
   + flow_16_13_0_0 = 1
 one_parent_14: edge_0_14_0_0 + edge_1_14_0_0 + edge_2_14_0_0
   + edge_4_14_0_0 + edge_5_14_0_0 + edge_6_14_0_0 + edge_7_14_0_0
   + edge_8_14_0_0 + edge_9_14_0_0 + edge_11_14_0_0 + edge_12_14_0_0
   + edge_13_14_0_0 + edge_15_14_0_0 + edge_16_14_0_0 = 1
 consume_one_flow_unit_14: flow_0_14_0_0 + flow_1_14_0_0 + flow_2_14_0_0
   + flow_4_14_0_0 + flow_5_14_0_0 + flow_6_14_0_0 + flow_7_14_0_0
   + flow_8_14_0_0 + flow_9_14_0_0 + flow_11_14_0_0 + flow_12_14_0_0
   + flow_13_14_0_0 - flow_14_1_0_0 - flow_14_2_0_0 - flow_14_3_0_0
   - flow_14_5_0_0 - flow_14_6_0_0 - flow_14_7_0_0 - flow_14_8_0_0
   - flow_14_11_0_0 - flow_14_12_0_0 - flow_14_13_0_0 - flow_14_15_0_0
   - flow_14_16_0_0 - flow_14_17_0_0 + flow_15_14_0_0 + flow_16_14_0_0 = 1
 one_parent_15: edge_0_15_0_0 + edge_1_15_0_0 + edge_2_15_0_0
   + edge_4_15_0_0 + edge_5_15_0_0 + edge_7_15_0_0 + edge_8_15_0_0
   + edge_9_15_0_0 + edge_10_15_0_0 + edge_11_15_0_0 + edge_12_15_0_0
   + edge_13_15_0_0 + edge_14_15_0_0 + edge_16_15_0_0 + edge_17_15_0_0 = 1
 consume_one_flow_unit_15: flow_0_15_0_0 + flow_1_15_0_0 + flow_2_15_0_0
   + flow_4_15_0_0 + flow_5_15_0_0 + flow_7_15_0_0 + flow_8_15_0_0
   + flow_9_15_0_0 + flow_10_15_0_0 + flow_11_15_0_0 + flow_12_15_0_0
   + flow_13_15_0_0 + flow_14_15_0_0 - flow_15_1_0_0 - flow_15_2_0_0
   - flow_15_3_0_0 - flow_15_4_0_0 - flow_15_5_0_0 - flow_15_6_0_0
   - flow_15_7_0_0 - flow_15_8_0_0 - flow_15_9_0_0 - flow_15_10_0_0
   - flow_15_11_0_0 - flow_15_12_0_0 - flow_15_13_0_0 - flow_15_14_0_0
   - flow_15_16_0_0 - flow_15_17_0_0 + flow_16_15_0_0 + flow_17_15_0_0 = 1
 one_parent_16: edge_0_16_0_0 + edge_1_16_0_0 + edge_2_16_0_0
   + edge_4_16_0_0 + edge_5_16_0_0 + edge_7_16_0_0 + edge_8_16_0_0
   + edge_9_16_0_0 + edge_10_16_0_0 + edge_12_16_0_0 + edge_13_16_0_0
   + edge_14_16_0_0 + edge_15_16_0_0 + edge_17_16_0_0 = 1
 consume_one_flow_unit_16: flow_0_16_0_0 + flow_1_16_0_0 + flow_2_16_0_0
   + flow_4_16_0_0 + flow_5_16_0_0 + flow_7_16_0_0 + flow_8_16_0_0
   + flow_9_16_0_0 + flow_10_16_0_0 + flow_12_16_0_0 + flow_13_16_0_0
   + flow_14_16_0_0 + flow_15_16_0_0 - flow_16_1_0_0 - flow_16_7_0_0
   - flow_16_8_0_0 - flow_16_10_0_0 - flow_16_12_0_0 - flow_16_13_0_0
   - flow_16_14_0_0 - flow_16_15_0_0 - flow_16_17_0_0 + flow_17_16_0_0 = 1
 one_parent_17: edge_1_17_0_0 + edge_2_17_0_0 + edge_4_17_0_0
   + edge_5_17_0_0 + edge_7_17_0_0 + edge_8_17_0_0 + edge_9_17_0_0
   + edge_10_17_0_0 + edge_12_17_0_0 + edge_13_17_0_0 + edge_14_17_0_0
   + edge_15_17_0_0 + edge_16_17_0_0 = 1
 consume_one_flow_unit_17: flow_1_17_0_0 + flow_2_17_0_0 + flow_4_17_0_0
   + flow_5_17_0_0 + flow_7_17_0_0 + flow_8_17_0_0 + flow_9_17_0_0
   + flow_10_17_0_0 + flow_12_17_0_0 + flow_13_17_0_0 + flow_14_17_0_0
   + flow_15_17_0_0 + flow_16_17_0_0 - flow_17_15_0_0 - flow_17_16_0_0 = 1
 root_flow: flow_0_1_0_0 + flow_0_2_0_0 + flow_0_3_0_0 + flow_0_4_0_0
   + flow_0_5_0_0 + flow_0_6_0_0 + flow_0_7_0_0 + flow_0_8_0_0
   + flow_0_9_0_0 + flow_0_12_0_0 + flow_0_13_0_0 + flow_0_14_0_0
   + flow_0_15_0_0 + flow_0_16_0_0 = 17
 inactive_no_flow_0_1_0_0: flow_0_1_0_0 - 1000 edge_0_1_0_0 <= 0
 inactive_no_flow_0_2_0_0: flow_0_2_0_0 - 1000 edge_0_2_0_0 <= 0
 inactive_no_flow_0_3_0_0: flow_0_3_0_0 - 1000 edge_0_3_0_0 <= 0
 inactive_no_flow_0_4_0_0: flow_0_4_0_0 - 1000 edge_0_4_0_0 <= 0
 inactive_no_flow_0_5_0_0: flow_0_5_0_0 - 1000 edge_0_5_0_0 <= 0
 inactive_no_flow_0_6_0_0: flow_0_6_0_0 - 1000 edge_0_6_0_0 <= 0
 inactive_no_flow_0_7_0_0: flow_0_7_0_0 - 1000 edge_0_7_0_0 <= 0
 inactive_no_flow_0_8_0_0: flow_0_8_0_0 - 1000 edge_0_8_0_0 <= 0
 inactive_no_flow_0_9_0_0: flow_0_9_0_0 - 1000 edge_0_9_0_0 <= 0
 inactive_no_flow_0_12_0_0: flow_0_12_0_0 - 1000 edge_0_12_0_0 <= 0
 inactive_no_flow_0_13_0_0: flow_0_13_0_0 - 1000 edge_0_13_0_0 <= 0
 inactive_no_flow_0_14_0_0: flow_0_14_0_0 - 1000 edge_0_14_0_0 <= 0
 inactive_no_flow_0_15_0_0: flow_0_15_0_0 - 1000 edge_0_15_0_0 <= 0
 inactive_no_flow_0_16_0_0: flow_0_16_0_0 - 1000 edge_0_16_0_0 <= 0
 inactive_no_flow_1_2_0_0: flow_1_2_0_0 - 1000 edge_1_2_0_0 <= 0
 inactive_no_flow_1_3_0_0: flow_1_3_0_0 - 1000 edge_1_3_0_0 <= 0
 inactive_no_flow_1_4_0_0: flow_1_4_0_0 - 1000 edge_1_4_0_0 <= 0
 inactive_no_flow_1_5_0_0: flow_1_5_0_0 - 1000 edge_1_5_0_0 <= 0
 inactive_no_flow_1_6_0_0: flow_1_6_0_0 - 1000 edge_1_6_0_0 <= 0
 inactive_no_flow_1_7_0_0: flow_1_7_0_0 - 1000 edge_1_7_0_0 <= 0
 inactive_no_flow_1_8_0_0: flow_1_8_0_0 - 1000 edge_1_8_0_0 <= 0
 inactive_no_flow_1_9_0_0: flow_1_9_0_0 - 1000 edge_1_9_0_0 <= 0
 inactive_no_flow_1_10_0_0: flow_1_10_0_0 - 1000 edge_1_10_0_0 <= 0
 inactive_no_flow_1_11_0_0: flow_1_11_0_0 - 1000 edge_1_11_0_0 <= 0
 inactive_no_flow_1_12_0_0: flow_1_12_0_0 - 1000 edge_1_12_0_0 <= 0
 inactive_no_flow_1_13_0_0: flow_1_13_0_0 - 1000 edge_1_13_0_0 <= 0
 inactive_no_flow_1_14_0_0: flow_1_14_0_0 - 1000 edge_1_14_0_0 <= 0
 inactive_no_flow_1_15_0_0: flow_1_15_0_0 - 1000 edge_1_15_0_0 <= 0
 inactive_no_flow_1_16_0_0: flow_1_16_0_0 - 1000 edge_1_16_0_0 <= 0
 inactive_no_flow_1_17_0_0: flow_1_17_0_0 - 1000 edge_1_17_0_0 <= 0
 inactive_no_flow_2_1_0_0: flow_2_1_0_0 - 1000 edge_2_1_0_0 <= 0
 inactive_no_flow_2_3_0_0: flow_2_3_0_0 - 1000 edge_2_3_0_0 <= 0
 inactive_no_flow_2_4_0_0: flow_2_4_0_0 - 1000 edge_2_4_0_0 <= 0
 inactive_no_flow_2_5_0_0: flow_2_5_0_0 - 1000 edge_2_5_0_0 <= 0
 inactive_no_flow_2_6_0_0: flow_2_6_0_0 - 1000 edge_2_6_0_0 <= 0
 inactive_no_flow_2_7_0_0: flow_2_7_0_0 - 1000 edge_2_7_0_0 <= 0
 inactive_no_flow_2_8_0_0: flow_2_8_0_0 - 1000 edge_2_8_0_0 <= 0
 inactive_no_flow_2_9_0_0: flow_2_9_0_0 - 1000 edge_2_9_0_0 <= 0
 inactive_no_flow_2_11_0_0: flow_2_11_0_0 - 1000 edge_2_11_0_0 <= 0
 inactive_no_flow_2_12_0_0: flow_2_12_0_0 - 1000 edge_2_12_0_0 <= 0
 inactive_no_flow_2_13_0_0: flow_2_13_0_0 - 1000 edge_2_13_0_0 <= 0
 inactive_no_flow_2_14_0_0: flow_2_14_0_0 - 1000 edge_2_14_0_0 <= 0
 inactive_no_flow_2_15_0_0: flow_2_15_0_0 - 1000 edge_2_15_0_0 <= 0
 inactive_no_flow_2_16_0_0: flow_2_16_0_0 - 1000 edge_2_16_0_0 <= 0
 inactive_no_flow_2_17_0_0: flow_2_17_0_0 - 1000 edge_2_17_0_0 <= 0
 inactive_no_flow_3_1_0_0: flow_3_1_0_0 - 1000 edge_3_1_0_0 <= 0
 inactive_no_flow_3_2_0_0: flow_3_2_0_0 - 1000 edge_3_2_0_0 <= 0
 inactive_no_flow_3_4_0_0: flow_3_4_0_0 - 1000 edge_3_4_0_0 <= 0
 inactive_no_flow_3_5_0_0: flow_3_5_0_0 - 1000 edge_3_5_0_0 <= 0
 inactive_no_flow_3_6_0_0: flow_3_6_0_0 - 1000 edge_3_6_0_0 <= 0
 inactive_no_flow_3_8_0_0: flow_3_8_0_0 - 1000 edge_3_8_0_0 <= 0
 inactive_no_flow_3_9_0_0: flow_3_9_0_0 - 1000 edge_3_9_0_0 <= 0
 inactive_no_flow_4_1_0_0: flow_4_1_0_0 - 1000 edge_4_1_0_0 <= 0
 inactive_no_flow_4_2_0_0: flow_4_2_0_0 - 1000 edge_4_2_0_0 <= 0
 inactive_no_flow_4_3_0_0: flow_4_3_0_0 - 1000 edge_4_3_0_0 <= 0
 inactive_no_flow_4_5_0_0: flow_4_5_0_0 - 1000 edge_4_5_0_0 <= 0
 inactive_no_flow_4_6_0_0: flow_4_6_0_0 - 1000 edge_4_6_0_0 <= 0
 inactive_no_flow_4_7_0_0: flow_4_7_0_0 - 1000 edge_4_7_0_0 <= 0
 inactive_no_flow_4_8_0_0: flow_4_8_0_0 - 1000 edge_4_8_0_0 <= 0
 inactive_no_flow_4_9_0_0: flow_4_9_0_0 - 1000 edge_4_9_0_0 <= 0
 inactive_no_flow_4_10_0_0: flow_4_10_0_0 - 1000 edge_4_10_0_0 <= 0
 inactive_no_flow_4_11_0_0: flow_4_11_0_0 - 1000 edge_4_11_0_0 <= 0
 inactive_no_flow_4_12_0_0: flow_4_12_0_0 - 1000 edge_4_12_0_0 <= 0
 inactive_no_flow_4_13_0_0: flow_4_13_0_0 - 1000 edge_4_13_0_0 <= 0
 inactive_no_flow_4_14_0_0: flow_4_14_0_0 - 1000 edge_4_14_0_0 <= 0
 inactive_no_flow_4_15_0_0: flow_4_15_0_0 - 1000 edge_4_15_0_0 <= 0
 inactive_no_flow_4_16_0_0: flow_4_16_0_0 - 1000 edge_4_16_0_0 <= 0
 inactive_no_flow_4_17_0_0: flow_4_17_0_0 - 1000 edge_4_17_0_0 <= 0
 inactive_no_flow_5_1_0_0: flow_5_1_0_0 - 1000 edge_5_1_0_0 <= 0
 inactive_no_flow_5_2_0_0: flow_5_2_0_0 - 1000 edge_5_2_0_0 <= 0
 inactive_no_flow_5_3_0_0: flow_5_3_0_0 - 1000 edge_5_3_0_0 <= 0
 inactive_no_flow_5_4_0_0: flow_5_4_0_0 - 1000 edge_5_4_0_0 <= 0
 inactive_no_flow_5_6_0_0: flow_5_6_0_0 - 1000 edge_5_6_0_0 <= 0
 inactive_no_flow_5_7_0_0: flow_5_7_0_0 - 1000 edge_5_7_0_0 <= 0
 inactive_no_flow_5_8_0_0: flow_5_8_0_0 - 1000 edge_5_8_0_0 <= 0
 inactive_no_flow_5_9_0_0: flow_5_9_0_0 - 1000 edge_5_9_0_0 <= 0
 inactive_no_flow_5_10_0_0: flow_5_10_0_0 - 1000 edge_5_10_0_0 <= 0
 inactive_no_flow_5_11_0_0: flow_5_11_0_0 - 1000 edge_5_11_0_0 <= 0
 inactive_no_flow_5_12_0_0: flow_5_12_0_0 - 1000 edge_5_12_0_0 <= 0
 inactive_no_flow_5_13_0_0: flow_5_13_0_0 - 1000 edge_5_13_0_0 <= 0
 inactive_no_flow_5_14_0_0: flow_5_14_0_0 - 1000 edge_5_14_0_0 <= 0
 inactive_no_flow_5_15_0_0: flow_5_15_0_0 - 1000 edge_5_15_0_0 <= 0
 inactive_no_flow_5_16_0_0: flow_5_16_0_0 - 1000 edge_5_16_0_0 <= 0
 inactive_no_flow_5_17_0_0: flow_5_17_0_0 - 1000 edge_5_17_0_0 <= 0
 inactive_no_flow_6_2_0_0: flow_6_2_0_0 - 1000 edge_6_2_0_0 <= 0
 inactive_no_flow_6_3_0_0: flow_6_3_0_0 - 1000 edge_6_3_0_0 <= 0
 inactive_no_flow_6_4_0_0: flow_6_4_0_0 - 1000 edge_6_4_0_0 <= 0
 inactive_no_flow_6_5_0_0: flow_6_5_0_0 - 1000 edge_6_5_0_0 <= 0
 inactive_no_flow_6_7_0_0: flow_6_7_0_0 - 1000 edge_6_7_0_0 <= 0
 inactive_no_flow_6_8_0_0: flow_6_8_0_0 - 1000 edge_6_8_0_0 <= 0
 inactive_no_flow_6_9_0_0: flow_6_9_0_0 - 1000 edge_6_9_0_0 <= 0
 inactive_no_flow_6_11_0_0: flow_6_11_0_0 - 1000 edge_6_11_0_0 <= 0
 inactive_no_flow_6_13_0_0: flow_6_13_0_0 - 1000 edge_6_13_0_0 <= 0
 inactive_no_flow_6_14_0_0: flow_6_14_0_0 - 1000 edge_6_14_0_0 <= 0
 inactive_no_flow_7_1_0_0: flow_7_1_0_0 - 1000 edge_7_1_0_0 <= 0
 inactive_no_flow_7_2_0_0: flow_7_2_0_0 - 1000 edge_7_2_0_0 <= 0
 inactive_no_flow_7_3_0_0: flow_7_3_0_0 - 1000 edge_7_3_0_0 <= 0
 inactive_no_flow_7_4_0_0: flow_7_4_0_0 - 1000 edge_7_4_0_0 <= 0
 inactive_no_flow_7_5_0_0: flow_7_5_0_0 - 1000 edge_7_5_0_0 <= 0
 inactive_no_flow_7_6_0_0: flow_7_6_0_0 - 1000 edge_7_6_0_0 <= 0
 inactive_no_flow_7_8_0_0: flow_7_8_0_0 - 1000 edge_7_8_0_0 <= 0
 inactive_no_flow_7_9_0_0: flow_7_9_0_0 - 1000 edge_7_9_0_0 <= 0
 inactive_no_flow_7_10_0_0: flow_7_10_0_0 - 1000 edge_7_10_0_0 <= 0
 inactive_no_flow_7_11_0_0: flow_7_11_0_0 - 1000 edge_7_11_0_0 <= 0
 inactive_no_flow_7_12_0_0: flow_7_12_0_0 - 1000 edge_7_12_0_0 <= 0
 inactive_no_flow_7_13_0_0: flow_7_13_0_0 - 1000 edge_7_13_0_0 <= 0
 inactive_no_flow_7_14_0_0: flow_7_14_0_0 - 1000 edge_7_14_0_0 <= 0
 inactive_no_flow_7_15_0_0: flow_7_15_0_0 - 1000 edge_7_15_0_0 <= 0
 inactive_no_flow_7_16_0_0: flow_7_16_0_0 - 1000 edge_7_16_0_0 <= 0
 inactive_no_flow_7_17_0_0: flow_7_17_0_0 - 1000 edge_7_17_0_0 <= 0
 inactive_no_flow_8_1_0_0: flow_8_1_0_0 - 1000 edge_8_1_0_0 <= 0
 inactive_no_flow_8_2_0_0: flow_8_2_0_0 - 1000 edge_8_2_0_0 <= 0
 inactive_no_flow_8_3_0_0: flow_8_3_0_0 - 1000 edge_8_3_0_0 <= 0
 inactive_no_flow_8_4_0_0: flow_8_4_0_0 - 1000 edge_8_4_0_0 <= 0
 inactive_no_flow_8_5_0_0: flow_8_5_0_0 - 1000 edge_8_5_0_0 <= 0
 inactive_no_flow_8_6_0_0: flow_8_6_0_0 - 1000 edge_8_6_0_0 <= 0
 inactive_no_flow_8_7_0_0: flow_8_7_0_0 - 1000 edge_8_7_0_0 <= 0
 inactive_no_flow_8_9_0_0: flow_8_9_0_0 - 1000 edge_8_9_0_0 <= 0
 inactive_no_flow_8_10_0_0: flow_8_10_0_0 - 1000 edge_8_10_0_0 <= 0
 inactive_no_flow_8_12_0_0: flow_8_12_0_0 - 1000 edge_8_12_0_0 <= 0
 inactive_no_flow_8_13_0_0: flow_8_13_0_0 - 1000 edge_8_13_0_0 <= 0
 inactive_no_flow_8_14_0_0: flow_8_14_0_0 - 1000 edge_8_14_0_0 <= 0
 inactive_no_flow_8_15_0_0: flow_8_15_0_0 - 1000 edge_8_15_0_0 <= 0
 inactive_no_flow_8_16_0_0: flow_8_16_0_0 - 1000 edge_8_16_0_0 <= 0
 inactive_no_flow_8_17_0_0: flow_8_17_0_0 - 1000 edge_8_17_0_0 <= 0
 inactive_no_flow_9_1_0_0: flow_9_1_0_0 - 1000 edge_9_1_0_0 <= 0
 inactive_no_flow_9_2_0_0: flow_9_2_0_0 - 1000 edge_9_2_0_0 <= 0
 inactive_no_flow_9_3_0_0: flow_9_3_0_0 - 1000 edge_9_3_0_0 <= 0
 inactive_no_flow_9_4_0_0: flow_9_4_0_0 - 1000 edge_9_4_0_0 <= 0
 inactive_no_flow_9_5_0_0: flow_9_5_0_0 - 1000 edge_9_5_0_0 <= 0
 inactive_no_flow_9_6_0_0: flow_9_6_0_0 - 1000 edge_9_6_0_0 <= 0
 inactive_no_flow_9_7_0_0: flow_9_7_0_0 - 1000 edge_9_7_0_0 <= 0
 inactive_no_flow_9_8_0_0: flow_9_8_0_0 - 1000 edge_9_8_0_0 <= 0
 inactive_no_flow_9_11_0_0: flow_9_11_0_0 - 1000 edge_9_11_0_0 <= 0
 inactive_no_flow_9_12_0_0: flow_9_12_0_0 - 1000 edge_9_12_0_0 <= 0
 inactive_no_flow_9_13_0_0: flow_9_13_0_0 - 1000 edge_9_13_0_0 <= 0
 inactive_no_flow_9_14_0_0: flow_9_14_0_0 - 1000 edge_9_14_0_0 <= 0
 inactive_no_flow_9_15_0_0: flow_9_15_0_0 - 1000 edge_9_15_0_0 <= 0
 inactive_no_flow_9_16_0_0: flow_9_16_0_0 - 1000 edge_9_16_0_0 <= 0
 inactive_no_flow_9_17_0_0: flow_9_17_0_0 - 1000 edge_9_17_0_0 <= 0
 inactive_no_flow_10_8_0_0: flow_10_8_0_0 - 1000 edge_10_8_0_0 <= 0
 inactive_no_flow_10_15_0_0: flow_10_15_0_0 - 1000 edge_10_15_0_0 <= 0
 inactive_no_flow_10_16_0_0: flow_10_16_0_0 - 1000 edge_10_16_0_0 <= 0
 inactive_no_flow_10_17_0_0: flow_10_17_0_0 - 1000 edge_10_17_0_0 <= 0
 inactive_no_flow_11_5_0_0: flow_11_5_0_0 - 1000 edge_11_5_0_0 <= 0
 inactive_no_flow_11_6_0_0: flow_11_6_0_0 - 1000 edge_11_6_0_0 <= 0
 inactive_no_flow_11_7_0_0: flow_11_7_0_0 - 1000 edge_11_7_0_0 <= 0
 inactive_no_flow_11_12_0_0: flow_11_12_0_0 - 1000 edge_11_12_0_0 <= 0
 inactive_no_flow_11_13_0_0: flow_11_13_0_0 - 1000 edge_11_13_0_0 <= 0
 inactive_no_flow_11_14_0_0: flow_11_14_0_0 - 1000 edge_11_14_0_0 <= 0
 inactive_no_flow_11_15_0_0: flow_11_15_0_0 - 1000 edge_11_15_0_0 <= 0
 inactive_no_flow_12_1_0_0: flow_12_1_0_0 - 1000 edge_12_1_0_0 <= 0
 inactive_no_flow_12_2_0_0: flow_12_2_0_0 - 1000 edge_12_2_0_0 <= 0
 inactive_no_flow_12_3_0_0: flow_12_3_0_0 - 1000 edge_12_3_0_0 <= 0
 inactive_no_flow_12_4_0_0: flow_12_4_0_0 - 1000 edge_12_4_0_0 <= 0
 inactive_no_flow_12_5_0_0: flow_12_5_0_0 - 1000 edge_12_5_0_0 <= 0
 inactive_no_flow_12_6_0_0: flow_12_6_0_0 - 1000 edge_12_6_0_0 <= 0
 inactive_no_flow_12_7_0_0: flow_12_7_0_0 - 1000 edge_12_7_0_0 <= 0
 inactive_no_flow_12_9_0_0: flow_12_9_0_0 - 1000 edge_12_9_0_0 <= 0
 inactive_no_flow_12_11_0_0: flow_12_11_0_0 - 1000 edge_12_11_0_0 <= 0
 inactive_no_flow_12_13_0_0: flow_12_13_0_0 - 1000 edge_12_13_0_0 <= 0
 inactive_no_flow_12_14_0_0: flow_12_14_0_0 - 1000 edge_12_14_0_0 <= 0
 inactive_no_flow_12_15_0_0: flow_12_15_0_0 - 1000 edge_12_15_0_0 <= 0
 inactive_no_flow_12_16_0_0: flow_12_16_0_0 - 1000 edge_12_16_0_0 <= 0
 inactive_no_flow_12_17_0_0: flow_12_17_0_0 - 1000 edge_12_17_0_0 <= 0
 inactive_no_flow_13_1_0_0: flow_13_1_0_0 - 1000 edge_13_1_0_0 <= 0
 inactive_no_flow_13_2_0_0: flow_13_2_0_0 - 1000 edge_13_2_0_0 <= 0
 inactive_no_flow_13_3_0_0: flow_13_3_0_0 - 1000 edge_13_3_0_0 <= 0
 inactive_no_flow_13_5_0_0: flow_13_5_0_0 - 1000 edge_13_5_0_0 <= 0
 inactive_no_flow_13_6_0_0: flow_13_6_0_0 - 1000 edge_13_6_0_0 <= 0
 inactive_no_flow_13_7_0_0: flow_13_7_0_0 - 1000 edge_13_7_0_0 <= 0
 inactive_no_flow_13_8_0_0: flow_13_8_0_0 - 1000 edge_13_8_0_0 <= 0
 inactive_no_flow_13_9_0_0: flow_13_9_0_0 - 1000 edge_13_9_0_0 <= 0
 inactive_no_flow_13_11_0_0: flow_13_11_0_0 - 1000 edge_13_11_0_0 <= 0
 inactive_no_flow_13_12_0_0: flow_13_12_0_0 - 1000 edge_13_12_0_0 <= 0
 inactive_no_flow_13_14_0_0: flow_13_14_0_0 - 1000 edge_13_14_0_0 <= 0
 inactive_no_flow_13_15_0_0: flow_13_15_0_0 - 1000 edge_13_15_0_0 <= 0
 inactive_no_flow_13_16_0_0: flow_13_16_0_0 - 1000 edge_13_16_0_0 <= 0
 inactive_no_flow_13_17_0_0: flow_13_17_0_0 - 1000 edge_13_17_0_0 <= 0
 inactive_no_flow_14_1_0_0: flow_14_1_0_0 - 1000 edge_14_1_0_0 <= 0
 inactive_no_flow_14_2_0_0: flow_14_2_0_0 - 1000 edge_14_2_0_0 <= 0
 inactive_no_flow_14_3_0_0: flow_14_3_0_0 - 1000 edge_14_3_0_0 <= 0
 inactive_no_flow_14_5_0_0: flow_14_5_0_0 - 1000 edge_14_5_0_0 <= 0
 inactive_no_flow_14_6_0_0: flow_14_6_0_0 - 1000 edge_14_6_0_0 <= 0
 inactive_no_flow_14_7_0_0: flow_14_7_0_0 - 1000 edge_14_7_0_0 <= 0
 inactive_no_flow_14_8_0_0: flow_14_8_0_0 - 1000 edge_14_8_0_0 <= 0
 inactive_no_flow_14_11_0_0: flow_14_11_0_0 - 1000 edge_14_11_0_0 <= 0
 inactive_no_flow_14_12_0_0: flow_14_12_0_0 - 1000 edge_14_12_0_0 <= 0
 inactive_no_flow_14_13_0_0: flow_14_13_0_0 - 1000 edge_14_13_0_0 <= 0
 inactive_no_flow_14_15_0_0: flow_14_15_0_0 - 1000 edge_14_15_0_0 <= 0
 inactive_no_flow_14_16_0_0: flow_14_16_0_0 - 1000 edge_14_16_0_0 <= 0
 inactive_no_flow_14_17_0_0: flow_14_17_0_0 - 1000 edge_14_17_0_0 <= 0
 inactive_no_flow_15_1_0_0: flow_15_1_0_0 - 1000 edge_15_1_0_0 <= 0
 inactive_no_flow_15_2_0_0: flow_15_2_0_0 - 1000 edge_15_2_0_0 <= 0
 inactive_no_flow_15_3_0_0: flow_15_3_0_0 - 1000 edge_15_3_0_0 <= 0
 inactive_no_flow_15_4_0_0: flow_15_4_0_0 - 1000 edge_15_4_0_0 <= 0
 inactive_no_flow_15_5_0_0: flow_15_5_0_0 - 1000 edge_15_5_0_0 <= 0
 inactive_no_flow_15_6_0_0: flow_15_6_0_0 - 1000 edge_15_6_0_0 <= 0
 inactive_no_flow_15_7_0_0: flow_15_7_0_0 - 1000 edge_15_7_0_0 <= 0
 inactive_no_flow_15_8_0_0: flow_15_8_0_0 - 1000 edge_15_8_0_0 <= 0
 inactive_no_flow_15_9_0_0: flow_15_9_0_0 - 1000 edge_15_9_0_0 <= 0
 inactive_no_flow_15_10_0_0: flow_15_10_0_0 - 1000 edge_15_10_0_0 <= 0
 inactive_no_flow_15_11_0_0: flow_15_11_0_0 - 1000 edge_15_11_0_0 <= 0
 inactive_no_flow_15_12_0_0: flow_15_12_0_0 - 1000 edge_15_12_0_0 <= 0
 inactive_no_flow_15_13_0_0: flow_15_13_0_0 - 1000 edge_15_13_0_0 <= 0
 inactive_no_flow_15_14_0_0: flow_15_14_0_0 - 1000 edge_15_14_0_0 <= 0
 inactive_no_flow_15_16_0_0: flow_15_16_0_0 - 1000 edge_15_16_0_0 <= 0
 inactive_no_flow_15_17_0_0: flow_15_17_0_0 - 1000 edge_15_17_0_0 <= 0
 inactive_no_flow_16_1_0_0: flow_16_1_0_0 - 1000 edge_16_1_0_0 <= 0
 inactive_no_flow_16_7_0_0: flow_16_7_0_0 - 1000 edge_16_7_0_0 <= 0
 inactive_no_flow_16_8_0_0: flow_16_8_0_0 - 1000 edge_16_8_0_0 <= 0
 inactive_no_flow_16_10_0_0: flow_16_10_0_0 - 1000 edge_16_10_0_0 <= 0
 inactive_no_flow_16_12_0_0: flow_16_12_0_0 - 1000 edge_16_12_0_0 <= 0
 inactive_no_flow_16_13_0_0: flow_16_13_0_0 - 1000 edge_16_13_0_0 <= 0
 inactive_no_flow_16_14_0_0: flow_16_14_0_0 - 1000 edge_16_14_0_0 <= 0
 inactive_no_flow_16_15_0_0: flow_16_15_0_0 - 1000 edge_16_15_0_0 <= 0
 inactive_no_flow_16_17_0_0: flow_16_17_0_0 - 1000 edge_16_17_0_0 <= 0
 inactive_no_flow_17_15_0_0: flow_17_15_0_0 - 1000 edge_17_15_0_0 <= 0
 inactive_no_flow_17_16_0_0: flow_17_16_0_0 - 1000 edge_17_16_0_0 <= 0
Bounds
Binaries
 edge_0_1_0_0 edge_0_2_0_0 edge_0_3_0_0 edge_0_4_0_0 edge_0_5_0_0
 edge_0_6_0_0 edge_0_7_0_0 edge_0_8_0_0 edge_0_9_0_0 edge_0_12_0_0
 edge_0_13_0_0 edge_0_14_0_0 edge_0_15_0_0 edge_0_16_0_0 edge_1_2_0_0
 edge_1_3_0_0 edge_1_4_0_0 edge_1_5_0_0 edge_1_6_0_0 edge_1_7_0_0
 edge_1_8_0_0 edge_1_9_0_0 edge_1_10_0_0 edge_1_11_0_0 edge_1_12_0_0
 edge_1_13_0_0 edge_1_14_0_0 edge_1_15_0_0 edge_1_16_0_0 edge_1_17_0_0
 edge_2_1_0_0 edge_2_3_0_0 edge_2_4_0_0 edge_2_5_0_0 edge_2_6_0_0
 edge_2_7_0_0 edge_2_8_0_0 edge_2_9_0_0 edge_2_11_0_0 edge_2_12_0_0
 edge_2_13_0_0 edge_2_14_0_0 edge_2_15_0_0 edge_2_16_0_0 edge_2_17_0_0
 edge_3_1_0_0 edge_3_2_0_0 edge_3_4_0_0 edge_3_5_0_0 edge_3_6_0_0
 edge_3_8_0_0 edge_3_9_0_0 edge_4_1_0_0 edge_4_2_0_0 edge_4_3_0_0
 edge_4_5_0_0 edge_4_6_0_0 edge_4_7_0_0 edge_4_8_0_0 edge_4_9_0_0
 edge_4_10_0_0 edge_4_11_0_0 edge_4_12_0_0 edge_4_13_0_0 edge_4_14_0_0
 edge_4_15_0_0 edge_4_16_0_0 edge_4_17_0_0 edge_5_1_0_0 edge_5_2_0_0
 edge_5_3_0_0 edge_5_4_0_0 edge_5_6_0_0 edge_5_7_0_0 edge_5_8_0_0
 edge_5_9_0_0 edge_5_10_0_0 edge_5_11_0_0 edge_5_12_0_0 edge_5_13_0_0
 edge_5_14_0_0 edge_5_15_0_0 edge_5_16_0_0 edge_5_17_0_0 edge_6_2_0_0
 edge_6_3_0_0 edge_6_4_0_0 edge_6_5_0_0 edge_6_7_0_0 edge_6_8_0_0
 edge_6_9_0_0 edge_6_11_0_0 edge_6_13_0_0 edge_6_14_0_0 edge_7_1_0_0
 edge_7_2_0_0 edge_7_3_0_0 edge_7_4_0_0 edge_7_5_0_0 edge_7_6_0_0
 edge_7_8_0_0 edge_7_9_0_0 edge_7_10_0_0 edge_7_11_0_0 edge_7_12_0_0
 edge_7_13_0_0 edge_7_14_0_0 edge_7_15_0_0 edge_7_16_0_0 edge_7_17_0_0
 edge_8_1_0_0 edge_8_2_0_0 edge_8_3_0_0 edge_8_4_0_0 edge_8_5_0_0
 edge_8_6_0_0 edge_8_7_0_0 edge_8_9_0_0 edge_8_10_0_0 edge_8_12_0_0
 edge_8_13_0_0 edge_8_14_0_0 edge_8_15_0_0 edge_8_16_0_0 edge_8_17_0_0
 edge_9_1_0_0 edge_9_2_0_0 edge_9_3_0_0 edge_9_4_0_0 edge_9_5_0_0
 edge_9_6_0_0 edge_9_7_0_0 edge_9_8_0_0 edge_9_11_0_0 edge_9_12_0_0
 edge_9_13_0_0 edge_9_14_0_0 edge_9_15_0_0 edge_9_16_0_0 edge_9_17_0_0
 edge_10_8_0_0 edge_10_15_0_0 edge_10_16_0_0 edge_10_17_0_0 edge_11_5_0_0
 edge_11_6_0_0 edge_11_7_0_0 edge_11_12_0_0 edge_11_13_0_0 edge_11_14_0_0
 edge_11_15_0_0 edge_12_1_0_0 edge_12_2_0_0 edge_12_3_0_0 edge_12_4_0_0
 edge_12_5_0_0 edge_12_6_0_0 edge_12_7_0_0 edge_12_9_0_0 edge_12_11_0_0
 edge_12_13_0_0 edge_12_14_0_0 edge_12_15_0_0 edge_12_16_0_0 edge_12_17_0_0
 edge_13_1_0_0 edge_13_2_0_0 edge_13_3_0_0 edge_13_5_0_0 edge_13_6_0_0
 edge_13_7_0_0 edge_13_8_0_0 edge_13_9_0_0 edge_13_11_0_0 edge_13_12_0_0
 edge_13_14_0_0 edge_13_15_0_0 edge_13_16_0_0 edge_13_17_0_0 edge_14_1_0_0
 edge_14_2_0_0 edge_14_3_0_0 edge_14_5_0_0 edge_14_6_0_0 edge_14_7_0_0
 edge_14_8_0_0 edge_14_11_0_0 edge_14_12_0_0 edge_14_13_0_0 edge_14_15_0_0
 edge_14_16_0_0 edge_14_17_0_0 edge_15_1_0_0 edge_15_2_0_0 edge_15_3_0_0
 edge_15_4_0_0 edge_15_5_0_0 edge_15_6_0_0 edge_15_7_0_0 edge_15_8_0_0
 edge_15_9_0_0 edge_15_10_0_0 edge_15_11_0_0 edge_15_12_0_0 edge_15_13_0_0
 edge_15_14_0_0 edge_15_16_0_0 edge_15_17_0_0 edge_16_1_0_0 edge_16_7_0_0
 edge_16_8_0_0 edge_16_10_0_0 edge_16_12_0_0 edge_16_13_0_0 edge_16_14_0_0
 edge_16_15_0_0 edge_16_17_0_0 edge_17_15_0_0 edge_17_16_0_0
End
